(set-info :smt-lib-version 2.6)
(set-logic QF_LIA)
(set-info :category "industrial")
(set-info :status sat)
(declare-fun x0 () Int)
(declare-fun x1 () Int)
(declare-fun x10 () Int)
(declare-fun x11 () Int)
(declare-fun x12 () Int)
(declare-fun x13 () Int)
(declare-fun x14 () Int)
(declare-fun x15 () Int)
(declare-fun x16 () Int)
(declare-fun x17 () Int)
(declare-fun x18 () Int)
(declare-fun x19 () Int)
(declare-fun x2 () Int)
(declare-fun x20 () Int)
(declare-fun x21 () Int)
(declare-fun x22 () Int)
(declare-fun x23 () Int)
(declare-fun x24 () Int)
(declare-fun x25 () Int)
(declare-fun x26 () Int)
(declare-fun x27 () Int)
(declare-fun x28 () Int)
(declare-fun x29 () Int)
(declare-fun x3 () Int)
(declare-fun x30 () Int)
(declare-fun x31 () Int)
(declare-fun x32 () Int)
(declare-fun x33 () Int)
(declare-fun x34 () Int)
(declare-fun x4 () Int)
(declare-fun x5 () Int)
(declare-fun x6 () Int)
(declare-fun x7 () Int)
(declare-fun x8 () Int)
(declare-fun x9 () Int)
(assert (let ((?v_35 (* 0 x0)) (?v_6 (* 0 x1)) (?v_7 (* 1 x11)) (?v_25 (* 0 x12)) (?v_37 (* 0 x13)) (?v_17 (* 0 x14)) (?v_0 (* 0 x15)) (?v_53 (* 0 x16)) (?v_2 (* 0 x23)) (?v_22 (* 0 x31)) (?v_3 (* 0 x33)) (?v_23 (* 0 x4)) (?v_4 (* 1 x24)) (?v_80 (* 2 x20)) (?v_14 (* 1 x27)) (?v_5 (* 0 x28)) (?v_51 (* 1 x30)) (?v_15 (* 1 x34)) (?v_24 (* 1 x8)) (?v_68 (* 1 x18)) (?v_11 (* 0 x2)) (?v_12 (* 0 x21)) (?v_30 (* 0 x25)) (?v_13 (* 0 x3)) (?v_21 (* 0 x26)) (?v_73 (* 1 x29)) (?v_32 (* 1 x4)) (?v_52 (* 1 x10)) (?v_16 (* 1 x12)) (?v_26 (* 1 x16)) (?v_28 (* 0 x20)) (?v_55 (* 0 x24)) (?v_31 (* 0 x30)) (?v_40 (* 0 x32)) (?v_49 (* 1 x26)) (?v_34 (* 0 x8)) (?v_81 (* 1 x5))) (let ((?v_108 (+ ?v_15 ?v_81)) (?v_48 (* 1 x15)) (?v_29 (* 0 x22)) (?v_65 (* 1 x21)) (?v_42 (* 0 x27)) (?v_33 (* 0 x7)) (?v_72 (* 1 x9))) (let ((?v_83 (+ ?v_24 ?v_72)) (?v_57 (* 1 x1)) (?v_58 (* 1 x14)) (?v_47 (* 1 x13)) (?v_88 (* 1 x23)) (?v_39 (* 0 x29)) (?v_43 (* 0 x9)) (?v_54 (* 0 x18)) (?v_50 (* 1 x3)) (?v_107 (* 1 x31)) (?v_100 (* 1 x0)) (?v_64 (* 0 x6)) (?v_98 (* 1 x19)) (?v_99 (* 2 x4)) (?v_101 (* 1 x20)) (?v_63 (* 1 x22)) (?v_69 (* 1 x33)) (?v_79 (* 0 x19)) (?v_66 (* 0 x17)) (?v_82 (* 0 x11)) (?v_70 (* 0 x34)) (?v_93 (* 0 x10)) (?v_71 (* 1 x7)) (?v_77 (* 0 x5)) (?v_89 (* 1 x25)) (?v_90 (* 1 x28)) (?v_91 (* 1 x6)) (?v_106 (* 1 x2)) (?v_104 (* 1 x17)) (?v_36 (* (- 2) x22)) (?v_1 (* (- 1) x17)) (?v_18 (* (- 1) x19)) (?v_75 (* (- 1) x2)) (?v_9 (* (- 1) x29)) (?v_10 (* (- 1) x6)) (?v_44 (* (- 1) x10)) (?v_45 (* (- 1) x12)) (?v_59 (* (- 1) x16)) (?v_8 (* (- 1) x22)) (?v_86 (* (- 1) x30)) (?v_67 (* (- 1) x31)) (?v_20 (* (- 1) x32)) (?v_27 (* (- 1) x34)) (?v_41 (* (- 1) x5)) (?v_61 (* (- 1) x15)) (?v_19 (* (- 1) x23)) (?v_87 (* (- 1) x4)) (?v_96 (* (- 1) x1)) (?v_74 (* (- 1) x13)) (?v_38 (* (- 1) x20)) (?v_46 (* (- 1) x33)) (?v_60 (* (- 1) x18)) (?v_92 (* (- 1) x28)) (?v_62 (* (- 1) x7)) (?v_76 (* (- 1) x21)) (?v_56 (* (- 1) x0)) (?v_84 (* (- 1) x11)) (?v_94 (* (- 2) x21)) (?v_105 (* (- 1) x8)) (?v_85 (* (- 1) x3)) (?v_78 (* (- 1) x25)) (?v_97 (* (- 1) x9)) (?v_103 (* (- 1) x24)) (?v_95 (* (- 1) x26)) (?v_102 (* (- 2) x32))) (and (<= (+ ?v_35 (+ ?v_6 (+ ?v_7 (+ ?v_36 (+ ?v_25 (+ ?v_37 (+ ?v_17 (+ ?v_0 (+ ?v_53 (+ ?v_1 (+ ?v_18 (+ ?v_75 (+ ?v_2 (+ ?v_9 (+ ?v_10 (+ ?v_22 (+ ?v_3 (+ ?v_23 (+ ?v_4 (+ ?v_80 (+ ?v_14 (+ ?v_5 (+ ?v_51 (+ ?v_15 ?v_24)))))))))))))))))))))))) 0) (<= (+ ?v_44 (+ ?v_45 (+ ?v_59 (+ ?v_8 (+ ?v_86 (+ ?v_67 (+ ?v_20 (+ ?v_0 (+ ?v_1 (+ ?v_68 (+ ?v_27 (+ ?v_11 (+ ?v_12 (+ ?v_2 (+ ?v_30 (+ ?v_13 (+ ?v_3 (+ ?v_4 (+ ?v_21 (+ ?v_73 (+ ?v_32 (+ ?v_41 ?v_5)))))))))))))))))))))) 0) (<= (+ ?v_6 (+ ?v_52 (+ ?v_7 (+ ?v_16 (+ ?v_61 (+ ?v_26 (+ ?v_1 (+ ?v_8 (+ ?v_19 (+ ?v_9 (+ ?v_87 (+ ?v_10 (+ ?v_11 (+ ?v_28 (+ ?v_12 (+ ?v_55 (+ ?v_13 (+ ?v_31 (+ ?v_40 (+ ?v_3 (+ ?v_49 (+ ?v_34 (+ ?v_14 ?v_108))))))))))))))))))))))) 1) (<= (+ ?v_96 (+ (* (- 2) x24) (+ ?v_16 (+ ?v_74 (+ ?v_17 (+ ?v_48 (+ ?v_1 (+ ?v_18 (+ ?v_11 (+ ?v_38 (+ ?v_29 (+ ?v_19 (+ ?v_20 (+ ?v_46 (+ ?v_21 (+ ?v_65 (+ ?v_42 (+ ?v_13 (+ ?v_22 (+ ?v_23 (+ ?v_33 ?v_83))))))))))))))))))))) 0) (<= (+ (* (- 2) x11) (+ ?v_57 (+ ?v_25 (+ ?v_58 (+ ?v_0 (+ ?v_47 (+ ?v_26 (+ ?v_1 (+ ?v_60 (+ ?v_27 (+ ?v_11 (+ ?v_28 (+ ?v_29 (+ ?v_88 (+ ?v_30 (+ ?v_4 (+ ?v_21 (+ ?v_92 (+ ?v_39 (+ ?v_13 (+ ?v_31 (+ ?v_22 (+ ?v_32 (+ ?v_33 (+ ?v_34 ?v_43))))))))))))))))))))))))) 0) (<= (+ ?v_35 (+ ?v_6 (+ ?v_7 (+ ?v_36 (+ (* (- 2) x30) (+ ?v_37 (+ ?v_26 (+ ?v_54 (+ (* 2 x2) (+ ?v_38 (+ ?v_19 (+ ?v_30 (+ ?v_21 (+ ?v_39 (+ ?v_50 (+ ?v_107 (+ ?v_40 (+ ?v_41 (+ ?v_62 (+ ?v_42 ?v_43)))))))))))))))))))) 1) (<= (+ ?v_44 (+ ?v_100 (+ ?v_6 (+ ?v_7 (+ ?v_45 (+ ?v_76 (+ ?v_29 (+ ?v_22 (+ ?v_46 (+ ?v_27 (+ ?v_64 (+ ?v_47 (+ ?v_48 (+ ?v_26 (+ ?v_98 (+ ?v_49 (+ ?v_41 (+ ?v_42 (+ ?v_50 (+ ?v_51 (+ ?v_99 ?v_34))))))))))))))))))))) 0) (<= (+ (* (- 2) x14) (+ ?v_56 (+ ?v_84 (+ ?v_6 (+ ?v_52 (+ ?v_45 (+ ?v_94 (+ ?v_19 (+ ?v_37 (+ ?v_0 (+ ?v_53 (+ ?v_54 (+ ?v_11 (+ ?v_55 (+ ?v_13 (+ ?v_23 (+ ?v_101 (+ ?v_63 (+ ?v_69 (+ (* 2 x32) (+ ?v_41 (+ ?v_33 ?v_14)))))))))))))))))))))) 1) (<= (+ ?v_56 (+ ?v_44 (+ ?v_57 (+ ?v_45 (+ ?v_58 (+ ?v_59 (+ ?v_60 (+ ?v_27 (+ ?v_37 (+ ?v_79 (+ ?v_12 (+ ?v_29 (+ ?v_30 (+ ?v_21 (+ ?v_39 (+ ?v_51 (+ ?v_40 (+ ?v_23 (+ ?v_33 (+ ?v_105 ?v_66)))))))))))))))))))) (- 1)) (<= (+ ?v_82 (+ ?v_61 (+ ?v_59 (+ ?v_18 (+ (* (- 3) x2) (+ ?v_85 (+ ?v_62 (+ ?v_37 (+ ?v_17 (+ ?v_54 (+ ?v_63 (+ ?v_2 (+ ?v_30 (+ ?v_21 (+ ?v_39 (+ ?v_22 (+ ?v_51 (+ ?v_40 (+ ?v_3 (+ ?v_70 (+ ?v_23 (+ ?v_64 (+ ?v_65 ?v_14))))))))))))))))))))))) 0) (<= (+ ?v_35 (+ ?v_6 (+ ?v_93 (+ ?v_17 (+ ?v_7 (+ ?v_78 (+ ?v_46 (+ ?v_10 (+ ?v_97 (+ ?v_37 (+ ?v_66 (+ ?v_54 (+ ?v_28 (+ ?v_2 (+ ?v_21 (+ ?v_42 (+ ?v_39 (+ ?v_50 (+ ?v_31 (+ ?v_22 (+ ?v_32 (+ ?v_71 ?v_34)))))))))))))))))))))) 0) (<= (+ ?v_35 (+ ?v_6 (+ ?v_45 (+ ?v_17 (+ ?v_19 (+ ?v_103 (+ ?v_9 (+ ?v_67 (+ ?v_48 (+ ?v_66 (+ ?v_68 (+ ?v_11 (+ ?v_12 (+ ?v_30 (+ ?v_21 (+ ?v_5 (+ ?v_13 (+ ?v_40 (+ ?v_23 (+ ?v_69 (+ ?v_70 (+ ?v_71 (+ ?v_34 ?v_72))))))))))))))))))))))) 0) (<= (+ ?v_57 (+ ?v_52 (+ ?v_7 (+ ?v_45 (+ ?v_53 (+ ?v_18 (+ ?v_2 (+ ?v_95 (+ ?v_50 (+ ?v_20 (+ ?v_3 (+ ?v_27 (+ ?v_10 (+ ?v_37 (+ ?v_66 (+ ?v_30 (+ ?v_65 (+ ?v_73 (+ ?v_77 (+ ?v_34 (+ ?v_43 (+ ?v_14 ?v_5)))))))))))))))))))))) (- 1)) (<= (+ ?v_57 (+ ?v_52 (+ ?v_25 (+ ?v_74 (+ ?v_58 (+ ?v_53 (+ ?v_75 (+ ?v_76 (+ (* (- 1) x27) (+ ?v_20 (+ ?v_66 (+ ?v_68 (+ ?v_28 (+ ?v_63 (+ ?v_2 (+ ?v_55 (+ ?v_89 (+ ?v_21 (+ ?v_5 (+ ?v_13 (+ ?v_31 (+ (* 2 x31) (+ ?v_69 (+ ?v_15 (+ ?v_77 (+ ?v_64 (+ ?v_33 ?v_72))))))))))))))))))))))))))) 0) (<= (+ ?v_56 (+ ?v_57 (+ ?v_7 (+ ?v_45 (+ ?v_58 (+ ?v_78 (+ ?v_47 (+ ?v_66 (+ ?v_79 (+ ?v_11 (+ ?v_12 (+ ?v_39 (+ ?v_51 (+ ?v_40 (+ ?v_3 (+ ?v_32 (+ ?v_64 (+ ?v_4 (+ ?v_71 (+ ?v_34 (+ ?v_80 ?v_81))))))))))))))))))))) (- 1)) (<= (+ ?v_82 (+ ?v_57 (+ ?v_59 (+ ?v_19 (+ ?v_9 (+ ?v_16 (+ ?v_48 (+ ?v_27 (+ ?v_66 (+ ?v_54 (+ ?v_79 (+ ?v_28 (+ ?v_12 (+ ?v_13 (+ ?v_3 (+ (* 2 x25) (+ ?v_21 (+ ?v_90 (+ ?v_91 ?v_83))))))))))))))))))) 1) (<= (+ ?v_84 (+ ?v_35 (+ ?v_58 (+ ?v_53 (+ ?v_16 (+ ?v_76 (+ ?v_8 (+ ?v_85 (+ ?v_86 (+ ?v_46 (+ ?v_87 (+ ?v_66 (+ ?v_88 (+ ?v_55 (+ ?v_39 (+ ?v_22 (+ ?v_70 (+ ?v_43 (+ ?v_106 (+ ?v_89 (+ ?v_90 ?v_91))))))))))))))))))))) (- 1)) (<= (+ (* (- 2) x29) (+ ?v_25 (+ ?v_74 (+ ?v_0 (+ ?v_68 (+ ?v_79 (+ ?v_11 (+ ?v_38 (+ ?v_66 (+ ?v_55 (+ ?v_30 (+ ?v_65 (+ ?v_88 (+ ?v_49 (+ ?v_42 (+ ?v_92 (+ ?v_40 (+ ?v_3 (+ ?v_70 (+ ?v_71 (+ ?v_34 (+ ?v_43 ?v_81)))))))))))))))))))))) (- 1)) (<= (+ ?v_93 (+ ?v_82 (+ ?v_0 (+ ?v_68 (+ ?v_94 (+ ?v_102 (+ (* (- 2) x33) (+ (* (- 2) x9) (+ ?v_95 (+ ?v_86 (+ ?v_67 (+ ?v_37 (+ ?v_28 (+ ?v_29 (+ ?v_55 (+ ?v_30 (+ ?v_39 (+ ?v_77 (+ ?v_91 ?v_33))))))))))))))))))) 0) (<= (+ ?v_35 (+ ?v_96 (+ ?v_8 (+ ?v_85 (+ ?v_87 (+ ?v_97 (+ ?v_25 (+ ?v_0 (+ ?v_47 (+ ?v_58 (+ ?v_26 (+ ?v_98 (+ ?v_28 (+ ?v_12 (+ ?v_2 (+ ?v_4 (+ ?v_92 (+ ?v_51 (+ ?v_40 (+ ?v_3 (+ ?v_73 (+ ?v_15 ?v_34)))))))))))))))))))))) 1) (<= (+ ?v_93 (+ ?v_82 (+ ?v_86 (+ ?v_67 (+ ?v_97 (+ ?v_37 (+ ?v_54 (+ ?v_48 (+ ?v_26 (+ ?v_11 (+ ?v_29 (+ ?v_89 (+ ?v_21 (+ ?v_5 (+ ?v_13 (+ ?v_40 (+ ?v_73 (+ ?v_70 (+ ?v_99 (+ ?v_33 ?v_24)))))))))))))))))))) 0) (<= (+ ?v_100 (+ ?v_45 (+ ?v_18 (+ ?v_8 (+ ?v_78 (+ ?v_20 (+ ?v_62 (+ ?v_37 (+ ?v_58 (+ ?v_88 (+ ?v_55 (+ ?v_21 (+ ?v_13 (+ ?v_31 (+ ?v_73 (+ ?v_32 (+ ?v_91 (+ ?v_34 (+ ?v_104 (+ ?v_101 (+ ?v_15 (+ ?v_72 (* 2 x27))))))))))))))))))))))) 1) (<= (+ ?v_84 (+ ?v_35 (+ ?v_6 (+ ?v_59 (+ ?v_102 (+ ?v_103 (+ ?v_85 (+ ?v_27 (+ ?v_37 (+ ?v_58 (+ ?v_54 (+ ?v_2 (+ ?v_3 (+ ?v_64 (+ ?v_104 (+ ?v_101 (+ ?v_49 (+ ?v_90 (+ (* 2 x8) (* 3 x9)))))))))))))))))))) 0) (<= (+ ?v_35 (+ ?v_45 (+ ?v_74 (+ ?v_78 (+ ?v_9 (+ ?v_97 (+ ?v_0 (+ ?v_53 (+ ?v_95 (+ ?v_12 (+ ?v_55 (+ ?v_64 (+ ?v_33 (+ ?v_105 (+ ?v_104 (+ ?v_98 (+ ?v_106 (+ ?v_107 (+ (* 1 x32) ?v_108))))))))))))))))))) 0) (<= (+ ?v_82 (+ ?v_17 (+ ?v_57 (+ ?v_16 (+ ?v_74 (+ ?v_61 (+ ?v_53 (+ ?v_60 (+ ?v_98 (+ ?v_76 (+ ?v_63 (+ ?v_103 (+ ?v_13 (+ ?v_67 (+ ?v_31 (+ ?v_40 (+ ?v_3 (+ ?v_27 (+ ?v_41 (+ ?v_64 (+ ?v_105 (+ ?v_43 (+ ?v_14 (+ ?v_5 ?v_71)))))))))))))))))))))))) (- 1)))))))
(check-sat)
(exit)
